 $BASIS GBASIS=STO NGAUSS=3 NDFUNC=1 NPFUNC=1 DIFFSP=.TRUE. $END
 $CONTRL SCFTYP=RHF RUNTYP=ENERGY MAXIT=200 $END
 $SYSTEM MWORDS=125 $END

 $DATA 
Halichondrin B
C1
O     8,0     0,35148    -1,59218    -0,56489
C     6,0     1,51524    -0,77117    -0,47061
C     6,0     1,52539     0,08732     0,77049
O     8,0     2,83783     0,70930     0,71943
C     6,0     3,76023    -0,29882     0,21427
C     6,0     2,89140    -1,42134    -0,34380
O     8,0     2,89108    -2,41529     0,67722
C     6,0     3,43869    -1,89571     1,89390
O     8,0     2,51373    -1,17940     2,70712
C     6,0     1,30118    -0,77539     2,05767
C     6,0     0,32952    -2,00470     1,88545
O     8,0     0,60546    -3,09611     2,83167
C     6,0     0,01752    -4,44547     2,59236
C     6,0    -1,21392    -4,24562     1,64766
C     6,0    -1,03393    -3,36852     0,38376
C     6,0     0,25887    -2,57105     0,46571
C     6,0     4,47342    -0,91814     1,41205
C     6,0     3,82129    -3,17254     2,60973
C     6,0     4,66088    -3,22786     3,87294
C     6,0     5,33436    -4,61372     4,06969
O     8,0     4,34041    -5,64189     4,23877
C     6,0     4,93278    -6,89382     3,89058
C     6,0     5,99418    -6,58385     2,88951
C     6,0     6,26069    -5,09786     2,93185
C     6,0     1,21005    -5,65156     2,35905
C     6,0     1,20624    -7,24610     2,87004
O     8,0     2,27050    -8,17431     2,38215
C     6,0     2,66407    -9,46787     3,16302
C     6,0     3,68788   -10,79901     2,91903
C     6,0     3,78360   -11,41913     1,54972
O     8,0     4,48727   -12,73057     1,63459
C     6,0     3,82384   -14,01164     1,51247
C     6,0     2,73918   -13,95757     0,52054
O     8,0     1,83282   -14,95568     0,94398
C     6,0     1,60615   -15,19193     2,40843
O     8,0     1,13807   -14,47616     3,68717
C     6,0    -0,10916   -15,14081     4,12746
C     6,0    -0,70007   -15,64727     2,80469
O     8,0    -2,05838   -15,54178     2,37628
C     6,0    -2,81587   -14,52038     2,98235
O     8,0    -2,41166   -13,21857     2,65862
C     6,0    -2,80076   -12,68560     1,42718
C     6,0    -4,27045   -12,67488     1,06545
O     8,0    -4,87833   -11,58373     1,80657
C     6,0    -3,82268   -10,62789     2,12982
C     6,0    -2,55076   -11,25096     1,62719
C     6,0     5,43615    -7,67400     5,12172
C     6,0     4,33752    -7,95995     6,16572
C     6,0     4,40809    -9,22298     7,06237
O     8,0     3,12961    -9,88601     7,00987
C     6,0     2,91564   -10,97293     6,09423
C     6,0     1,56028   -10,63009     5,01583
C     6,0     1,45211   -10,25963     3,38763
O     8,0     1,30134   -11,27415     2,26703
C     6,0     2,32048   -11,39628     1,11661
C     6,0     2,00651   -12,63696     0,26154
C     6,0     3,14895   -14,93251     2,62158
C     6,0     0,17585   -14,84883     1,89527
C     6,0    -1,09682   -14,40680     5,06391
C     6,0    -2,50506   -14,58919     4,47174
C     6,0    -4,35677   -14,67163     2,67019
C     6,0    -4,80314   -14,09523     1,28795
C     6,0     5,64316   -10,13949     6,97402
C     6,0     5,53404   -11,04059     5,76614
C     6,0     4,25804   -11,82964     5,98391
C     6,0     6,51741    -7,42940     2,03769
O     8,0     0,40949    -7,58847     3,74754
C     6,0     3,22589   -12,18195     3,60706
C     6,0    -3,92750    -9,14911     1,59041
O     8,0    -4,73434    -9,10083     0,41314
C     6,0    -0,97763   -12,93770     5,53496
C     6,0    -4,25976   -14,97893     0,14665
C     6,0     6,84805   -11,77650     5,42255
C     6,0     4,31385   -13,17782     6,11338
C     6,0    -2,54789    -8,40935     1,34437
C     6,0    -1,77998    -8,84044     0,06295
O     8,0    -1,51281    -7,70990    -0,78628
C     6,0    -0,42091    -9,50184     0,33472
O     8,0    -0,16549   -10,47849    -0,67817
H     1,0     4,64250   -14,65525     1,15018
H     1,0     3,14462   -14,31097    -0,43573
H     1,0     2,19694   -10,49708     0,50042
H     1,0     4,44084   -10,81406     0,91763
H     1,0    -2,16826   -13,10342     0,64193
H     1,0    -4,40617   -12,39008     0,01100
H     1,0     0,22123   -16,02578     4,69017
H     1,0    -0,46236   -16,71109     2,69766
H     1,0    -0,65832    -1,57791     2,12444
H     1,0     1,01902    -3,32779     0,27753
H     1,0     1,53923    -0,12820    -1,36166
H     1,0     2,34311   -11,66235     6,73824
H     1,0     0,76505     0,87329     0,69808
H     1,0    -3,80813   -10,57911     3,22677
H     1,0     4,42959     0,15751    -0,51744
H     1,0     3,20567    -1,91886    -1,26665
H     1,0     0,84448    -0,09150     2,78650
H     1,0    -0,41426    -4,68617     3,57403
H     1,0    -1,71843    -5,18036     1,41027
H     1,0    -1,94811    -3,66971     2,24393
H     1,0    -1,88546    -2,67661     0,26668
H     1,0    -1,04348    -3,97758    -0,52617
H     1,0     4,69793    -0,13543     2,17513
H     1,0     5,41366    -1,39007     1,12570
H     1,0     4,18845    -3,87244     1,85894
H     1,0     2,87120    -3,59589     2,91933
H     1,0     3,98244    -3,05449     4,72666
H     1,0     5,41040    -2,43712     3,88282
H     1,0     5,90742    -4,56108     4,99636
H     1,0     4,18192    -7,47544     3,36793
H     1,0     7,33756    -4,97131     3,13419
H     1,0     5,98247    -4,68357     1,96285
H     1,0     1,58781    -5,57286     1,34218
H     1,0     1,98550    -5,26344     3,02577
H     1,0     3,02136    -9,03553     4,09098
H     1,0     4,68693   -10,54596     3,24475
H     1,0    -2,35342   -10,93450     0,62271
H     1,0    -1,73607   -11,03736     2,32154
H     1,0     6,22623    -7,10467     5,62147
H     1,0     5,91593    -8,57974     4,75473
H     1,0     3,34562    -7,90025     5,71150
H     1,0     4,35201    -7,10448     6,85343
H     1,0     4,44011    -8,84405     8,09333
H     1,0     1,07717    -9,77968     5,51432
H     1,0     0,90976   -11,48332     5,12686
H     1,0     0,52030    -9,70574     3,29104
H     1,0     0,93842   -12,82822     0,30566
H     1,0     2,23578   -12,38224    -0,78180
H     1,0     3,44909   -14,74397     3,65778
H     1,0     3,57927   -15,93940     2,45763
H     1,0    -0,13637   -15,09192     0,87029
H     1,0    -0,03743   -13,76894     1,99830
H     1,0    -1,11732   -14,95464     6,03082
H     1,0    -2,97703   -13,66865     4,78260
H     1,0    -2,80480   -15,57443     4,83376
H     1,0    -4,95056   -14,13496     3,42565
H     1,0    -4,66361   -15,72577     2,72427
H     1,0    -5,90117   -14,09436     1,23412
H     1,0     5,69803   -10,77809     7,87009
H     1,0     6,56743    -9,55044     6,95625
H     1,0     5,38563   -10,40228     4,91157
H     1,0     6,26009    -8,46080     2,06651
H     1,0     7,25278    -7,06234     1,27732
H     1,0     2,53449   -12,73734     2,97789
H     1,0     2,61127   -12,31895     4,47362
H     1,0     4,09089   -12,82123     3,74831
H     1,0    -4,45885    -8,56645     2,35627
H     1,0    -4,32034    -8,51098    -0,23906
H     1,0    -0,77353   -12,29912     4,68031
H     1,0    -0,27682   -12,76966     6,36242
H     1,0    -1,92837   -12,55148     5,95471
H     1,0    -3,16938   -14,91559     0,05626
H     1,0    -4,66840   -14,65920    -0,81867
H     1,0    -4,50643   -16,03214     0,29628
H     1,0     7,14014   -12,52118     6,16711
H     1,0     7,67882   -11,06492     5,33061
H     1,0     6,76707   -12,28194     4,44955
H     1,0     3,42153   -13,78721     6,21573
H     1,0     5,24023   -13,73626     5,97511
H     1,0    -1,91841    -8,54557     2,23335
H     1,0    -2,74990    -7,33242     1,27910
H     1,0    -2,40878    -9,46915    -0,57171
H     1,0    -1,01560    -8,07153    -1,54794
H     1,0    -0,40991    -9,99895     1,29615
H     1,0     0,41577    -8,80083     0,32047
H     1,0    -0,16487   -11,33750    -0,21945
 $END
