$rem
   JOBTYPE SP
   EXCHANGE B3LYP
   BASIS 6-31G(d,p)
   GUI=2
$end

$comment
Esomeprazole
$end

$molecule
   0 1
   S        0.84163        0.22692        0.05460
   O        0.70722        1.48559       -0.75720
   O        3.23081       -4.76716        1.71737
   O       -0.76668        3.20582        6.70178
   N        0.53450        1.79955        2.26060
   N       -0.16848       -0.28285        2.55267
   N        3.56558       -0.68524        2.39399
   C        0.01227        1.65645        3.52207
   C        0.40933        0.61753        1.69426
   C       -0.50882        0.38115        3.70264
   C        3.03605       -1.08534        1.21243
   C        2.89457       -2.44272        0.86001
   C       -0.07731        2.58398        4.56845
   C        2.64301        0.06955        0.32698
   C        3.26119       -3.40251        1.82979
   C       -1.20496       -0.00424        4.84867
   C       -0.74537        2.22357        5.74716
   C        3.79822       -2.97743        3.06303
   C       -1.32222        0.95409        5.86806
   C        3.95018       -1.61908        3.27405
   C        2.40714       -2.81154       -0.51606
   C        4.23920       -3.90936        4.15543
   C        2.35369       -5.42440        0.82257
   C       -1.45729        2.92214        7.91097
   H       -0.39497       -1.24130        2.33494
   H        0.36085        3.56961        4.45396
   H        2.99355        1.01823        0.75305
   H        3.13051       -0.01735       -0.64965
   H       -1.64572       -0.98956        4.95334
   H       -1.87286        0.66957        6.75965
   H        4.39715       -1.23018        4.18522
   H        2.42724       -1.97599       -1.21874
   H        1.37380       -3.16519       -0.47124
   H        3.05759       -3.56313       -0.96858
   H        3.96424       -4.95129        3.96966
   H        3.76818       -3.61852        5.10214
   H        5.32681       -3.86184        4.27414
   H        2.22742       -6.45211        1.17805
   H        2.80561       -5.49282       -0.16970
   H        1.36013       -4.96973        0.79504
   H       -1.34660        3.78882        8.56984
   H       -1.02437        2.05811        8.42592
   H       -2.52640        2.77785        7.72448
$end
